language Essence 1.3

letting blksize_delta be
        function(1 --> 10, 2 --> 10, 3 --> 10, 4 --> 10, 5 --> 10, 6 --> 10, 7 --> 10, 8 --> 10, 9 --> 10, 10 --> 10,
                 11 --> 10, 12 --> 10, 13 --> 10, 14 --> 10, 15 --> 10, 16 --> 10, 17 --> 10, 18 --> 10, 19 --> 10,
                 20 --> 10, 21 --> 10, 22 --> 10, 23 --> 10, 24 --> 10, 25 --> 10, 26 --> 10, 27 --> 10, 28 --> 10,
                 29 --> 10, 30 --> 10, 31 --> 10)
letting maxcars be
        function(1 --> 10, 2 --> 10, 3 --> 10, 4 --> 10, 5 --> 10, 6 --> 10, 7 --> 10, 8 --> 10, 9 --> 10, 10 --> 10,
                 11 --> 10, 12 --> 10, 13 --> 10, 14 --> 10, 15 --> 10, 16 --> 10, 17 --> 10, 18 --> 10, 19 --> 10,
                 20 --> 10, 21 --> 10, 22 --> 10, 23 --> 10, 24 --> 10, 25 --> 10, 26 --> 10, 27 --> 10, 28 --> 10,
                 29 --> 10, 30 --> 10, 31 --> 10)
letting n_cars be 218
letting n_classes be 31
letting n_options be 31
letting quantity be
        function(1 --> 7, 2 --> 7, 3 --> 7, 4 --> 7, 5 --> 7, 6 --> 7, 7 --> 7, 8 --> 8, 9 --> 7, 10 --> 7, 11 --> 7,
                 12 --> 7, 13 --> 7, 14 --> 7, 15 --> 7, 16 --> 7, 17 --> 7, 18 --> 7, 19 --> 7, 20 --> 7, 21 --> 7,
                 22 --> 7, 23 --> 7, 24 --> 7, 25 --> 7, 26 --> 7, 27 --> 7, 28 --> 7, 29 --> 7, 30 --> 7, 31 --> 7)
letting usage be
        relation((1, 3), (1, 18), (1, 30), (2, 7), (2, 23), (2, 24), (2, 30), (3, 18), (3, 19), (4, 9), (5, 6), (5, 14),
                 (5, 17), (5, 25), (6, 3), (6, 9), (6, 28), (7, 6), (7, 14), (7, 23), (8, 2), (8, 5), (8, 6), (8, 9),
                 (8, 12), (8, 20), (9, 3), (9, 15), (9, 16), (9, 17), (9, 21), (9, 30), (10, 7), (10, 13), (10, 19),
                 (10, 27), (11, 2), (11, 3), (11, 21), (12, 1), (12, 9), (12, 11), (12, 22), (13, 15), (13, 21),
                 (13, 26), (13, 28), (14, 8), (14, 16), (15, 4), (15, 16), (15, 17), (16, 9), (16, 19), (16, 27),
                 (16, 28), (16, 30), (17, 10), (17, 11), (17, 20), (18, 6), (18, 7), (19, 2), (19, 7), (19, 22),
                 (19, 24), (19, 26), (20, 6), (20, 13), (20, 21), (20, 25), (21, 8), (21, 13), (22, 3), (22, 8),
                 (22, 16), (22, 17), (23, 10), (24, 17), (24, 21), (24, 22), (24, 30), (25, 7), (25, 8), (25, 26),
                 (26, 11), (26, 20), (27, 9), (27, 14), (28, 3), (29, 1), (29, 14), (30, 31), (31, 29))
$ Visualisation for usage
$  1  3
$  1 18
$  1 30
$  2  7
$  2 23
$  2 24
$  2 30
$  3 18
$  3 19
$  4  9
$  5  6
$  5 14
$  5 17
$  5 25
$  6  3
$  6  9
$  6 28
$  7  6
$  7 14
$  7 23
$  8  2
$  8  5
$  8  6
$  8  9
$  8 12
$  8 20
$  9  3
$  9 15
$  9 16
$  9 17
$  9 21
$  9 30
$ 10  7
$ 10 13
$ 10 19
$ 10 27
$ 11  2
$ 11  3
$ 11 21
$ 12  1
$ 12  9
$ 12 11
$ 12 22
$ 13 15
$ 13 21
$ 13 26
$ 13 28
$ 14  8
$ 14 16
$ 15  4
$ 15 16
$ 15 17
$ 16  9
$ 16 19
$ 16 27
$ 16 28
$ 16 30
$ 17 10
$ 17 11
$ 17 20
$ 18  6
$ 18  7
$ 19  2
$ 19  7
$ 19 22
$ 19 24
$ 19 26
$ 20  6
$ 20 13
$ 20 21
$ 20 25
$ 21  8
$ 21 13
$ 22  3
$ 22  8
$ 22 16
$ 22 17
$ 23 10
$ 24 17
$ 24 21
$ 24 22
$ 24 30
$ 25  7
$ 25  8
$ 25 26
$ 26 11
$ 26 20
$ 27  9
$ 27 14
$ 28  3
$ 29  1
$ 29 14
$ 30 31
$ 31 29

